NAME : victorChato
COMMENT : 29 locations in Western Sahara
COMMENT : Derived from National Imagery and Mapping Agency data
TYPE : TSP
DIMENSION : 29
EDGE_WEIGHT_TYPE : EUC_2D
NODE_COORD_SECTION
1 11003.611100 42102.500000
2 11108.611100 42373.888900
3 11133.333300 42885.833300
4 11155.833300 42712.500000
EOF
